--Link1--
%chk=molecule
%mem=8Gb
#pm6 opt=modredundant nosymm

remark line goes here

0   1
    C
    C    1      b2
    O    2      b3    1      a3
    O    1      b4    2      a4    3      t4
    H    1      b5    2      a5    3      t5
    H    1      b6    2      a6    3      t6
    H    2      b7    1      a7    4      t7
    H    2      b8    1      a8    4      t8
    H    3      b9    2      a9    1      t9
    H    4     b10    1     a10    2     t10
Variables:
b2=   1.5389
b3=   1.4226
a3= 109.9516
b4=   1.4228
a4= 109.9553
t4= -179.9578
b5=   1.0921
a5= 109.9543
t5= -60.0060
b6=   1.0918
a6= 109.9754
t6=  59.9804
b7=   1.0921
a7= 110.0051
t7=  60.0619
b8=   1.0929
a8= 109.9977
t8= -59.9837
b9=   0.9808
a9= 104.7716
t9= -179.9787
b10=   0.9799
a10= 104.7483
t10= 179.9643

D 1 2 3 4 s 36 10.0

